22	0

0	3	2	3	4
9	1	8
7	2	5	7
3	3	5	6	7
10	4	13	14	15	17
6	1	8
1	2	8	9
4	2	10	11
6	1	11
10	2	13	14
2	2	12	15
5	3	13	14	17
10	2	19	20
1	3	16	18	19
7	3	16	18	19
10	2	20	21
9	3	18	19	20
7	1	22
3	1	21
8	1	22
5	1	22
0	0
